\Problem name: MIN custos totais

Minimize
OBJROW: 100 x(a1,1) + 100 x(a1,2) + 161.60000 x(a2,1) + 161.60000 x(a2,2) + 161.60000 x(a3,1) + 161.60000 x(a3,2) + 117.25000 x(a4,1) + 117.25000 x(a4,2) + 220.54000 x(b1,1) + 220.54000 x(b1,2)
 + 220.17000 x(b2,1) + 220.17000 x(b2,2) + 220.54000 x(b3,1) + 220.54000 x(b3,2) + 262.19000 x(b4,1) + 262.19000 x(b4,2) + 56.63000 x(c1,1) + 56.63000 x(c1,2) + 65.55000 x(d1,1) + 65.55000 x(d1,2)
 + 272.94000 x(e1,1) + 272.94000 x(e1,2) + 152.51000 x(f1,1) + 152.51000 x(f1,2) + 86 x(g1,1) + 86 x(g1,2) + 53 x(h1,1) + 53 x(h1,2) + 0.73996 y(a1,1) + 0.73996 y(a1,2)
 + 1.19578 y(a2,1) + 1.19578 y(a2,2) + 1.19578 y(a3,1) + 1.19578 y(a3,2) + 0.86761 y(a4,1) + 0.86761 y(a4,2) + 1.63191 y(b1,1) + 1.63191 y(b1,2) + 1.62918 y(b2,1) + 1.62918 y(b2,2)
 + 1.63191 y(b3,1) + 1.63191 y(b3,2) + 1.94011 y(b4,1) + 1.94011 y(b4,2) + 0.84118 y(c1,1) + 0.84118 y(c1,2) + 0.48505 y(d1,1) + 0.48505 y(d1,2) + 2.01966 y(e1,1) + 2.01966 y(e1,2)
 + 1.12852 y(f1,1) + 1.12852 y(f1,2) + 0.63637 y(g1,1) + 0.63637 y(g1,2) + 0.39218 y(h1,1) + 0.39218 y(h1,2)
Subject To
Bounds
Integers
x(a1,1) x(a1,2) x(a2,1) x(a2,2) x(a3,1) x(a3,2) x(a4,1) x(a4,2) x(b1,1) x(b1,2) 
x(b2,1) x(b2,2) x(b3,1) x(b3,2) x(b4,1) x(b4,2) x(c1,1) x(c1,2) x(d1,1) x(d1,2) 
x(e1,1) x(e1,2) x(f1,1) x(f1,2) x(g1,1) x(g1,2) x(h1,1) x(h1,2) y(a1,1) y(a1,2) 
y(a2,1) y(a2,2) y(a3,1) y(a3,2) y(a4,1) y(a4,2) y(b1,1) y(b1,2) y(b2,1) y(b2,2) 
y(b3,1) y(b3,2) y(b4,1) y(b4,2) y(c1,1) y(c1,2) y(d1,1) y(d1,2) y(e1,1) y(e1,2) 
y(f1,1) y(f1,2) y(g1,1) y(g1,2) y(h1,1) y(h1,2) 
End
